c uprop, v00.0, 
c reading from data/prog313.c.cnf
c done reading: 0.002749
p cnf 78 298
-36 -41 0
36 41 0
-45 -55 0
45 55 0
-31 -48 0
31 48 0
-36 59 0
36 -59 0
36 -59 -61 0
-59 -61 0
-36 59 61 0
59 61 0
43 -45 -59 0
-43 45 0
-43 45 59 0
-43 59 0
-43 45 -63 0
-43 -63 0
-43 59 -63 0
43 -45 63 0
43 -59 63 0
45 59 -63 0
-31 -36 57 0
-31 -43 57 0
-36 -43 57 0
31 36 -57 0
31 43 -57 0
36 43 -57 0
31 -37 -57 0
36 -37 -57 0
-37 43 -57 0
-31 37 57 0
-36 37 57 0
37 -43 57 0
-31 -36 37 -43 0
31 36 -37 43 0
45 -51 0
-51 57 0
-45 51 -57 0
-34 -45 -57 0
-34 45 57 0
34 -45 57 0
34 45 -57 0
31 -33 0
-33 51 0
-31 33 -51 0
-31 -32 -51 0
31 -32 51 0
-31 32 51 0
31 32 -51 0
29 -61 0
-29 61 0
-27 -29 61 0
-27 -29 0
27 29 -61 0
27 29 0
24 -63 0
24 -29 -63 0
24 -29 0
-24 29 63 0
-22 -24 63 0
-22 -24 29 0
22 24 -63 0
22 24 0
22 24 -29 0
22 -29 -63 0
-24 -37 38 0
37 -38 0
24 37 -38 0
24 -38 0
-20 37 -38 0
-20 -38 0
-20 24 -38 0
20 -37 38 0
20 -24 38 0
-20 24 37 0
-34 -36 52 0
-34 -38 52 0
-36 -38 52 0
34 36 -52 0
34 38 -52 0
36 38 -52 0
-18 34 -52 0
-18 36 -52 0
-18 38 -52 0
18 -34 52 0
18 -36 52 0
18 -38 52 0
18 -34 -36 -38 0
-18 34 36 38 0
-32 -45 46 0
-32 46 -52 0
-45 46 -52 0
32 45 -46 0
32 -46 52 0
45 -46 52 0
-17 32 -46 0
-17 45 -46 0
-17 -46 52 0
17 -32 46 0
17 -45 46 0
17 46 -52 0
17 -32 -45 -52 0
-17 32 45 52 0
16 -31 -33 0
16 -33 -46 0
16 -31 -46 0
-16 31 33 0
-16 33 46 0
-16 31 46 0
-15 -16 33 0
-15 -16 31 0
-15 -16 46 0
15 16 -33 0
15 16 -31 0
15 16 -46 0
15 -31 -33 -46 0
-15 31 33 46 0
-27 -50 0
27 50 0
-22 -65 0
22 65 0
-20 -66 0
20 66 0
-18 -67 0
18 67 0
-17 -68 0
17 68 0
-15 -69 0
15 69 0
-16 -70 0
16 70 0
-28 -42 0
-26 -42 0
26 28 42 0
26 28 -71 0
-26 -28 -71 0
26 -28 71 0
-26 28 71 0
42 -56 0
-23 -56 0
23 -42 56 0
23 -42 -72 0
-23 42 -72 0
23 42 72 0
-23 -42 72 0
-49 56 0
-40 -49 0
40 49 -56 0
40 -56 -73 0
-40 56 -73 0
40 56 73 0
-40 -56 73 0
49 -74 0
-21 -74 0
21 -49 74 0
21 -49 -75 0
-21 49 -75 0
21 49 75 0
-21 -49 75 0
74 -76 0
-54 -76 0
54 -74 76 0
54 -74 -77 0
-54 74 -77 0
54 74 77 0
-54 -74 77 0
76 -78 0
-19 -78 0
19 -76 78 0
19 -60 -76 0
-19 -60 76 0
19 60 76 0
-19 60 -76 0
-62 78 0
-47 -62 0
47 62 -78 0
-44 47 -78 0
-44 -47 78 0
44 47 78 0
44 -47 -78 0
-28 -64 0
-26 -64 0
26 28 64 0
26 28 -58 0
-26 -28 -58 0
26 -28 58 0
-26 28 58 0
-14 64 0
-14 -23 0
14 23 -64 0
-13 23 -64 0
-13 -23 64 0
13 23 64 0
13 -23 -64 0
-12 14 0
-12 -40 0
12 -14 40 0
-11 -14 40 0
-11 14 -40 0
11 14 40 0
11 -14 -40 0
-10 12 0
-10 -21 0
10 -12 21 0
-9 -12 21 0
-9 12 -21 0
9 12 21 0
9 -12 -21 0
-8 10 0
-8 -54 0
8 -10 54 0
-7 -10 54 0
-7 10 -54 0
7 10 54 0
7 -10 -54 0
-6 8 0
-6 -19 0
6 -8 19 0
-5 -8 19 0
-5 8 -19 0
5 8 19 0
5 -8 -19 0
-4 6 0
-4 -47 0
4 -6 47 0
-3 -6 47 0
-3 6 -47 0
3 6 47 0
3 -6 -47 0
-2 27 0
-2 28 0
2 -27 -28 0
-27 28 0
27 -28 0
1 -22 -26 0
1 -2 -22 0
1 -2 -26 0
-1 22 26 0
-1 2 22 0
-1 2 26 0
1 -22 0
1 -26 0
1 -2 0
-2 -22 -26 0
-20 -23 35 0
-1 -20 35 0
-1 -23 35 0
20 23 -35 0
1 20 -35 0
1 23 -35 0
20 -35 0
23 -35 0
1 -35 0
1 20 23 0
-18 30 -40 0
-18 30 -35 0
30 -35 -40 0
18 -30 40 0
18 -30 35 0
-30 35 40 0
-18 30 0
30 -40 0
30 -35 0
-18 -35 -40 0
-17 -21 25 0
-17 25 -30 0
-21 25 -30 0
17 21 -25 0
17 -25 30 0
21 -25 30 0
-17 25 0
-21 25 0
25 -30 0
-17 -21 -30 0
-15 39 -54 0
-15 -25 39 0
-25 39 -54 0
15 -39 54 0
15 25 -39 0
25 -39 54 0
-15 39 0
39 -54 0
-25 39 0
-15 -25 -54 0
-16 -19 53 0
-16 -39 53 0
-19 -39 53 0
16 19 -53 0
16 39 -53 0
19 39 -53 0
-16 53 0
-19 53 0
-39 53 0
-16 -19 -39 0
-47 -53 0
-47 53 0
47 -53 0
